; Options: -in -smt2
(set-option :produce-unsat-assumptions true)

(declare-fun start!2991 () Bool)

(assert start!2991)

(declare-fun b_free!53 () Bool)

(declare-fun b_next!53 () Bool)

(assert (=> start!2991 (= b_free!53 (not b_next!53))))

(declare-fun tp!80 () Bool)

(declare-fun b_and!465 () Bool)

(assert (=> start!2991 (= tp!80 b_and!465)))

(declare-fun res!13536 () Bool)

(declare-fun e!9206 () Bool)

(assert (=> start!2991 (=> (not res!13536) (not e!9206))))

(declare-datatypes ((array!1396 0))(
  ( (array!1397 (arr!615 (Array (_ BitVec 32) (_ FloatingPoint 11 53))) (size!615 (_ BitVec 32))) )
))
(declare-fun a!12 () array!1396)

(assert (=> start!2991 (= res!13536 (= (size!615 a!12) #b00000000000000000000000000010100))))

(assert (=> start!2991 e!9206))

(declare-fun array_inv!563 (array!1396) Bool)

(assert (=> start!2991 (array_inv!563 a!12)))

(assert (=> start!2991 tp!80))

(declare-fun b!16987 () Bool)

(declare-fun res!13538 () Bool)

(assert (=> b!16987 (=> (not res!13538) (not e!9206))))

(declare-fun P!5 () Int)

(declare-fun dynLambda!65 (Int (_ FloatingPoint 11 53)) Bool)

(assert (=> b!16987 (= res!13538 (dynLambda!65 P!5 (select (arr!615 a!12) #b00000000000000000000000000000010)))))

(declare-fun b!16988 () Bool)

(declare-fun res!13539 () Bool)

(assert (=> b!16988 (=> (not res!13539) (not e!9206))))

(assert (=> b!16988 (= res!13539 (dynLambda!65 P!5 (select (arr!615 a!12) #b00000000000000000000000000000001)))))

(declare-fun b!16989 () Bool)

(assert (=> b!16989 (= e!9206 (bvsge #b00000000000000000000000000000100 (size!615 a!12)))))

(declare-fun b!16990 () Bool)

(declare-fun res!13537 () Bool)

(assert (=> b!16990 (=> (not res!13537) (not e!9206))))

(assert (=> b!16990 (= res!13537 (dynLambda!65 P!5 (select (arr!615 a!12) #b00000000000000000000000000000000)))))

(declare-fun b!16991 () Bool)

(declare-fun res!13535 () Bool)

(assert (=> b!16991 (=> (not res!13535) (not e!9206))))

(assert (=> b!16991 (= res!13535 (dynLambda!65 P!5 (select (arr!615 a!12) #b00000000000000000000000000000011)))))

(assert (= (and start!2991 res!13536) b!16990))

(assert (= (and b!16990 res!13537) b!16988))

(assert (= (and b!16988 res!13539) b!16987))

(assert (= (and b!16987 res!13538) b!16991))

(assert (= (and b!16991 res!13535) b!16989))

(declare-fun b_lambda!6993 () Bool)

(assert (=> (not b_lambda!6993) (not b!16987)))

(declare-fun t!603 () Bool)

(declare-fun tb!413 () Bool)

(assert (=> (and start!2991 (= P!5 P!5) t!603) tb!413))

(declare-fun result!413 () Bool)

(assert (=> tb!413 (= result!413 true)))

(assert (=> b!16987 t!603))

(declare-fun b_and!467 () Bool)

(assert (= b_and!465 (and (=> t!603 result!413) b_and!467)))

(declare-fun b_lambda!6995 () Bool)

(assert (=> (not b_lambda!6995) (not b!16988)))

(declare-fun t!605 () Bool)

(declare-fun tb!415 () Bool)

(assert (=> (and start!2991 (= P!5 P!5) t!605) tb!415))

(declare-fun result!415 () Bool)

(assert (=> tb!415 (= result!415 true)))

(assert (=> b!16988 t!605))

(declare-fun b_and!469 () Bool)

(assert (= b_and!467 (and (=> t!605 result!415) b_and!469)))

(declare-fun b_lambda!6997 () Bool)

(assert (=> (not b_lambda!6997) (not b!16990)))

(declare-fun t!607 () Bool)

(declare-fun tb!417 () Bool)

(assert (=> (and start!2991 (= P!5 P!5) t!607) tb!417))

(declare-fun result!417 () Bool)

(assert (=> tb!417 (= result!417 true)))

(assert (=> b!16990 t!607))

(declare-fun b_and!471 () Bool)

(assert (= b_and!469 (and (=> t!607 result!417) b_and!471)))

(declare-fun b_lambda!6999 () Bool)

(assert (=> (not b_lambda!6999) (not b!16991)))

(declare-fun t!609 () Bool)

(declare-fun tb!419 () Bool)

(assert (=> (and start!2991 (= P!5 P!5) t!609) tb!419))

(declare-fun result!419 () Bool)

(assert (=> tb!419 (= result!419 true)))

(assert (=> b!16991 t!609))

(declare-fun b_and!473 () Bool)

(assert (= b_and!471 (and (=> t!609 result!419) b_and!473)))

(declare-fun m!25363 () Bool)

(assert (=> b!16987 m!25363))

(assert (=> b!16987 m!25363))

(declare-fun m!25365 () Bool)

(assert (=> b!16987 m!25365))

(declare-fun m!25367 () Bool)

(assert (=> b!16988 m!25367))

(assert (=> b!16988 m!25367))

(declare-fun m!25369 () Bool)

(assert (=> b!16988 m!25369))

(declare-fun m!25371 () Bool)

(assert (=> start!2991 m!25371))

(declare-fun m!25373 () Bool)

(assert (=> b!16991 m!25373))

(assert (=> b!16991 m!25373))

(declare-fun m!25375 () Bool)

(assert (=> b!16991 m!25375))

(declare-fun m!25377 () Bool)

(assert (=> b!16990 m!25377))

(assert (=> b!16990 m!25377))

(declare-fun m!25379 () Bool)

(assert (=> b!16990 m!25379))

(check-sat (not b_lambda!6993) (not b_lambda!6999) (not start!2991) b_and!473 (not b_lambda!6995) (not b_next!53) (not b_lambda!6997))
(check-sat b_and!473 (not b_next!53))
